; benchmark generated from python API
(set-info :status unknown)
(declare-datatypes ((IntState 0)) (((Mk1 (val1 Int)) (Mk2 (val2 Int)))))
 (declare-fun c_main_~i~6 () Int)
(declare-fun c_main_~k~6 () Int)
(declare-fun c_main_~j~6 () Int)
(assert
 (let (($x163 (<= c_main_~i~6 3)))
 (let (($x70 (exists ((main_~i~6_st IntState) (val!162 Int) )(let ((?x56 (val2 main_~i~6_st)))
 (let (($x26 (<= ?x56 4)))
 (let (($x174 (and (<= c_main_~j~6 (+ (* 2 ?x56) 2)) $x26 (<= ?x56 c_main_~k~6))))
 (let (($x52 (not (= main_~i~6_st (Mk1 val!162)))))
 (and $x52 $x174))))))
 ))
 (let (($x92 (<= c_main_~i~6 4)))
 (let (($x170 (<= c_main_~j~6 (+ (* 2 c_main_~i~6) 2))))
 (let (($x36 (exists ((v_nnf_96 Int) )(let (($x91 (<= v_nnf_96 4)))
 (let (($x57 (<= c_main_~j~6 (+ (* 2 v_nnf_96) 2))))
 (and (<= (+ v_nnf_96 2) c_main_~k~6) $x57 $x91))))
 ))
 (let (($x172 (<= c_main_~i~6 2)))
 (let (($x35 (<= c_main_~j~6 (+ (* 2 c_main_~i~6) 1))))
 (and (and $x35 $x92 $x170 $x172 $x36 $x163) (not (and $x170 $x92 $x70 $x163)))))))))))
(check-sat)
